100
128
13
49
28
21
5
3
57
22
26
18
17
25
52
14
5
42
36
12
23
30
2
53
58
56
11
61
53
1
15
1
9
43
11
44
29
11
2
35
49
30
31
20
64
44
48
24
49
54
4
51
43
54
15
61
35
36
45
51
4
1
43
4
3
3
40
23
60
62
43
54
46
20
61
3
1
47
3
6
44
62
45
2
19
56
39
6
1
33
37
30
31
48
40
31
5
33
40
2
4
4